p cnf 561 1338
1 0
-2 0
-3 0
-4 0
-5 0
-6 0
-7 0
-8 0
-9 0
-10 0
-11 0
-12 0
-13 0
-14 0
-15 0
-16 0
-17 0
-18 0
-19 0
-20 0
-21 0
-22 0
-23 0
-24 0
-25 0
-26 0
-27 0
-28 0
-29 0
-30 0
-31 0
-32 0
-33 0
-34 0
-35 0
-36 0
-37 0
-38 0
-39 0
-40 0
-41 0
1 -42 0
42 -1 0
43 44 0
45 44 0
-43 -45 -44 0
-2 44 -46 0
2 -44 -46 0
46 -44 -2 0
2 44 46 0
-46 0
3 47 0
48 47 0
-3 -48 -47 0
-45 47 -49 0
45 -47 -49 0
49 -47 -45 0
45 47 49 0
-49 0
48 50 0
51 50 0
-48 -51 -50 0
-3 50 -52 0
3 -50 -52 0
52 -50 -3 0
3 50 52 0
-52 0
53 54 0
55 54 0
-53 -55 -54 0
-4 54 -56 0
4 -54 -56 0
56 -54 -4 0
4 54 56 0
-56 0
2 57 0
58 57 0
-2 -58 -57 0
-55 57 -59 0
55 -57 -59 0
59 -57 -55 0
55 57 59 0
-59 0
60 61 0
62 61 0
-60 -62 -61 0
-5 61 -63 0
5 -61 -63 0
63 -61 -5 0
5 61 63 0
-63 0
64 65 0
66 65 0
-64 -66 -65 0
-62 65 -67 0
62 -65 -67 0
67 -65 -62 0
62 65 67 0
-67 0
68 69 0
70 69 0
-68 -70 -69 0
-66 69 -71 0
66 -69 -71 0
71 -69 -66 0
66 69 71 0
-71 0
6 72 0
73 72 0
-6 -73 -72 0
-70 72 -74 0
70 -72 -74 0
74 -72 -70 0
70 72 74 0
-74 0
7 75 0
76 75 0
-7 -76 -75 0
-6 75 -77 0
6 -75 -77 0
77 -75 -6 0
6 75 77 0
-77 0
68 78 0
73 78 0
76 78 0
79 78 0
-80 0
-7 78 -81 0
7 -78 -81 0
81 -78 -7 0
7 78 81 0
-81 0
82 83 0
84 83 0
-82 -84 -83 0
-8 83 -85 0
8 -83 -85 0
85 -83 -8 0
8 83 85 0
-85 0
86 87 0
88 87 0
-86 -88 -87 0
-84 87 -89 0
84 -87 -89 0
89 -87 -84 0
84 87 89 0
-89 0
90 91 0
92 91 0
-90 -92 -91 0
-88 91 -93 0
88 -91 -93 0
93 -91 -88 0
88 91 93 0
-93 0
94 95 0
96 95 0
-94 -96 -95 0
-92 95 -97 0
92 -95 -97 0
97 -95 -92 0
92 95 97 0
-97 0
98 99 0
100 99 0
-98 -100 -99 0
-96 99 -101 0
96 -99 -101 0
101 -99 -96 0
96 99 101 0
-101 0
90 102 0
94 102 0
98 102 0
103 102 0
-104 0
-100 102 -105 0
100 -102 -105 0
105 -102 -100 0
100 102 105 0
-105 0
10 106 0
107 106 0
-10 -107 -106 0
-9 106 -108 0
9 -106 -108 0
108 -106 -9 0
9 106 108 0
-108 0
109 110 0
111 110 0
-109 -111 -110 0
-10 110 -112 0
10 -110 -112 0
112 -110 -10 0
10 110 112 0
-112 0
1 113 0
114 113 0
-1 -114 -113 0
-111 113 -115 0
111 -113 -115 0
115 -113 -111 0
111 113 115 0
-115 0
116 117 0
118 117 0
-116 -118 -117 0
-11 117 -119 0
11 -117 -119 0
119 -117 -11 0
11 117 119 0
-119 0
120 121 0
122 121 0
-120 -122 -121 0
-118 121 -123 0
118 -121 -123 0
123 -121 -118 0
118 121 123 0
-123 0
124 125 0
126 125 0
-124 -126 -125 0
-122 125 -127 0
122 -125 -127 0
127 -125 -122 0
122 125 127 0
-127 0
12 128 0
129 128 0
-12 -129 -128 0
-126 128 -130 0
126 -128 -130 0
130 -128 -126 0
126 128 130 0
-130 0
131 132 0
133 132 0
-131 -133 -132 0
-12 132 -134 0
12 -132 -134 0
134 -132 -12 0
12 132 134 0
-134 0
129 135 0
131 135 0
136 135 0
-129 -131 -136 -135 0
-133 135 -137 0
133 -135 -137 0
137 -135 -133 0
133 135 137 0
-137 0
138 139 0
140 139 0
-138 -140 -139 0
-13 139 -141 0
13 -139 -141 0
141 -139 -13 0
13 139 141 0
-141 0
10 142 0
143 142 0
-10 -143 -142 0
-140 142 -144 0
140 -142 -144 0
144 -142 -140 0
140 142 144 0
-144 0
145 146 0
147 146 0
-145 -147 -146 0
-14 146 -148 0
14 -146 -148 0
148 -146 -14 0
14 146 148 0
-148 0
122 149 0
150 149 0
-122 -150 -149 0
-147 149 -151 0
147 -149 -151 0
151 -149 -147 0
147 149 151 0
-151 0
152 153 0
154 153 0
-152 -154 -153 0
-15 153 -155 0
15 -153 -155 0
155 -153 -15 0
15 153 155 0
-155 0
156 157 0
158 157 0
-156 -158 -157 0
-154 157 -159 0
154 -157 -159 0
159 -157 -154 0
154 157 159 0
-159 0
160 161 0
162 161 0
-160 -162 -161 0
-158 161 -163 0
158 -161 -163 0
163 -161 -158 0
158 161 163 0
-163 0
92 164 0
165 164 0
-92 -165 -164 0
-162 164 -166 0
162 -164 -166 0
166 -164 -162 0
162 164 166 0
-166 0
17 167 0
168 167 0
-17 -168 -167 0
-16 167 -169 0
16 -167 -169 0
169 -167 -16 0
16 167 169 0
-169 0
170 171 0
172 171 0
-170 -172 -171 0
-17 171 -173 0
17 -171 -173 0
173 -171 -17 0
17 171 173 0
-173 0
3 174 0
175 174 0
-3 -175 -174 0
-172 174 -176 0
172 -174 -176 0
176 -174 -172 0
172 174 176 0
-176 0
177 178 0
179 178 0
-177 -179 -178 0
-18 178 -180 0
18 -178 -180 0
180 -178 -18 0
18 178 180 0
-180 0
133 181 0
182 181 0
-133 -182 -181 0
-179 181 -183 0
179 -181 -183 0
183 -181 -179 0
179 181 183 0
-183 0
55 184 0
185 184 0
-55 -185 -184 0
-19 184 -186 0
19 -184 -186 0
186 -184 -19 0
19 184 186 0
-186 0
187 188 0
189 188 0
-187 -189 -188 0
-20 188 -190 0
20 -188 -190 0
190 -188 -20 0
20 188 190 0
-190 0
191 192 0
193 192 0
-191 -193 -192 0
-189 192 -194 0
189 -192 -194 0
194 -192 -189 0
189 192 194 0
-194 0
195 196 0
197 196 0
-195 -197 -196 0
-193 196 -198 0
193 -196 -198 0
198 -196 -193 0
193 196 198 0
-198 0
199 200 0
201 200 0
-199 -201 -200 0
-197 200 -202 0
197 -200 -202 0
202 -200 -197 0
197 200 202 0
-202 0
203 204 0
205 204 0
-203 -205 -204 0
-201 204 -206 0
201 -204 -206 0
206 -204 -201 0
201 204 206 0
-206 0
207 208 0
209 208 0
-207 -209 -208 0
-205 208 -210 0
205 -208 -210 0
210 -208 -205 0
205 208 210 0
-210 0
203 211 0
207 211 0
212 211 0
-203 -207 -212 -211 0
-209 211 -213 0
209 -211 -213 0
213 -211 -209 0
209 211 213 0
-213 0
214 215 0
216 215 0
-214 -216 -215 0
-21 215 -217 0
21 -215 -217 0
217 -215 -21 0
21 215 217 0
-217 0
218 219 0
220 219 0
-218 -220 -219 0
-216 219 -221 0
216 -219 -221 0
221 -219 -216 0
216 219 221 0
-221 0
222 223 0
224 223 0
-222 -224 -223 0
-220 223 -225 0
220 -223 -225 0
225 -223 -220 0
220 223 225 0
-225 0
7 226 0
227 226 0
-7 -227 -226 0
-224 226 -228 0
224 -226 -228 0
228 -226 -224 0
224 226 228 0
-228 0
229 230 0
231 230 0
-229 -231 -230 0
-22 230 -232 0
22 -230 -232 0
232 -230 -22 0
22 230 232 0
-232 0
70 233 0
234 233 0
-70 -234 -233 0
-231 233 -235 0
231 -233 -235 0
235 -233 -231 0
231 233 235 0
-235 0
236 237 0
238 237 0
-236 -238 -237 0
-23 237 -239 0
23 -237 -239 0
239 -237 -23 0
23 237 239 0
-239 0
240 241 0
242 241 0
-240 -242 -241 0
-238 241 -243 0
238 -241 -243 0
243 -241 -238 0
238 241 243 0
-243 0
12 244 0
245 244 0
-12 -245 -244 0
-242 244 -246 0
242 -244 -246 0
246 -244 -242 0
242 244 246 0
-246 0
25 247 0
248 247 0
-25 -248 -247 0
-24 247 -249 0
24 -247 -249 0
249 -247 -24 0
24 247 249 0
-249 0
26 250 0
251 250 0
-26 -251 -250 0
-25 250 -252 0
25 -250 -252 0
252 -250 -25 0
25 250 252 0
-252 0
27 253 0
254 253 0
-27 -254 -253 0
-26 253 -255 0
26 -253 -255 0
255 -253 -26 0
26 253 255 0
-255 0
254 256 0
257 256 0
-254 -257 -256 0
-27 256 -258 0
27 -256 -258 0
258 -256 -27 0
27 256 258 0
-258 0
259 260 0
261 260 0
-259 -261 -260 0
-28 260 -262 0
28 -260 -262 0
262 -260 -28 0
28 260 262 0
-262 0
263 264 0
265 264 0
-263 -265 -264 0
-261 264 -266 0
261 -264 -266 0
266 -264 -261 0
261 264 266 0
-266 0
267 268 0
269 268 0
-267 -269 -268 0
-265 268 -270 0
265 -268 -270 0
270 -268 -265 0
265 268 270 0
-270 0
3 271 0
272 271 0
-3 -272 -271 0
-269 271 -273 0
269 -271 -273 0
273 -271 -269 0
269 271 273 0
-273 0
274 275 0
276 275 0
-274 -276 -275 0
-29 275 -277 0
29 -275 -277 0
277 -275 -29 0
29 275 277 0
-277 0
278 279 0
280 279 0
-278 -280 -279 0
-276 279 -281 0
276 -279 -281 0
281 -279 -276 0
276 279 281 0
-281 0
179 282 0
283 282 0
-179 -283 -282 0
-280 282 -284 0
280 -282 -284 0
284 -282 -280 0
280 282 284 0
-284 0
209 285 0
286 285 0
-209 -286 -285 0
-30 285 -287 0
30 -285 -287 0
287 -285 -30 0
30 285 287 0
-287 0
288 289 0
290 289 0
-288 -290 -289 0
-31 289 -291 0
31 -289 -291 0
291 -289 -31 0
31 289 291 0
-291 0
292 293 0
294 293 0
-292 -294 -293 0
-290 293 -295 0
290 -293 -295 0
295 -293 -290 0
290 293 295 0
-295 0
296 297 0
298 297 0
-296 -298 -297 0
-294 297 -299 0
294 -297 -299 0
299 -297 -294 0
294 297 299 0
-299 0
205 300 0
301 300 0
-205 -301 -300 0
-298 300 -302 0
298 -300 -302 0
302 -300 -298 0
298 300 302 0
-302 0
303 304 0
305 304 0
-303 -305 -304 0
-32 304 -306 0
32 -304 -306 0
306 -304 -32 0
32 304 306 0
-306 0
25 307 0
308 307 0
-25 -308 -307 0
-305 307 -309 0
305 -307 -309 0
309 -307 -305 0
305 307 309 0
-309 0
5 310 0
311 310 0
-5 -311 -310 0
-33 310 -312 0
33 -310 -312 0
312 -310 -33 0
33 310 312 0
-312 0
313 314 0
315 314 0
-313 -315 -314 0
-34 314 -316 0
34 -314 -316 0
316 -314 -34 0
34 314 316 0
-316 0
317 318 0
319 318 0
-317 -319 -318 0
-315 318 -320 0
315 -318 -320 0
320 -318 -315 0
315 318 320 0
-320 0
26 321 0
322 321 0
-26 -322 -321 0
-319 321 -323 0
319 -321 -323 0
323 -321 -319 0
319 321 323 0
-323 0
324 325 0
326 325 0
-324 -326 -325 0
-35 325 -327 0
35 -325 -327 0
327 -325 -35 0
35 325 327 0
-327 0
328 329 0
330 329 0
-328 -330 -329 0
-326 329 -331 0
326 -329 -331 0
331 -329 -326 0
326 329 331 0
-331 0
261 332 0
333 332 0
-261 -333 -332 0
-330 332 -334 0
330 -332 -334 0
334 -332 -330 0
330 332 334 0
-334 0
37 335 0
336 335 0
-37 -336 -335 0
-36 335 -337 0
36 -335 -337 0
337 -335 -36 0
36 335 337 0
-337 0
338 339 0
340 339 0
-338 -340 -339 0
-37 339 -341 0
37 -339 -341 0
341 -339 -37 0
37 339 341 0
-341 0
6 342 0
343 342 0
-6 -343 -342 0
-340 342 -344 0
340 -342 -344 0
344 -342 -340 0
340 342 344 0
-344 0
39 345 0
346 345 0
-39 -346 -345 0
-38 345 -347 0
38 -345 -347 0
347 -345 -38 0
38 345 347 0
-347 0
348 349 0
350 349 0
-348 -350 -349 0
-39 349 -351 0
39 -349 -351 0
351 -349 -39 0
39 349 351 0
-351 0
172 352 0
353 352 0
-172 -353 -352 0
-350 352 -354 0
350 -352 -354 0
354 -352 -350 0
350 352 354 0
-354 0
24 355 0
356 355 0
-24 -356 -355 0
-40 355 -357 0
40 -355 -357 0
357 -355 -40 0
40 355 357 0
-357 0
358 359 0
360 359 0
-358 -360 -359 0
-41 359 -361 0
41 -359 -361 0
361 -359 -41 0
41 359 361 0
-361 0
362 363 0
364 363 0
-362 -364 -363 0
-360 363 -365 0
360 -363 -365 0
365 -363 -360 0
360 363 365 0
-365 0
2 366 0
367 366 0
-2 -367 -366 0
-364 366 -368 0
364 -366 -368 0
368 -366 -364 0
364 366 368 0
-368 0
-42 369 -370 0
42 -369 -370 0
-42 -369 370 0
42 369 370 0
-370 0
-43 371 -372 0
43 -371 -372 0
-43 -371 372 0
43 371 372 0
-372 0
-48 373 -374 0
48 -373 -374 0
-48 -373 374 0
48 373 374 0
-374 0
-51 375 -376 0
51 -375 -376 0
-51 -375 376 0
51 375 376 0
-376 0
-53 377 -378 0
53 -377 -378 0
-53 -377 378 0
53 377 378 0
-378 0
-58 379 -380 0
58 -379 -380 0
-58 -379 380 0
58 379 380 0
-380 0
-60 381 -382 0
60 -381 -382 0
-60 -381 382 0
60 381 382 0
-382 0
-64 383 -384 0
64 -383 -384 0
-64 -383 384 0
64 383 384 0
-384 0
-68 385 -386 0
68 -385 -386 0
-68 -385 386 0
68 385 386 0
-386 0
-73 387 -388 0
73 -387 -388 0
-73 -387 388 0
73 387 388 0
-388 0
-76 389 -390 0
76 -389 -390 0
-76 -389 390 0
76 389 390 0
-390 0
-79 391 -392 0
79 -391 -392 0
-79 -391 392 0
79 391 392 0
-392 0
-82 393 -394 0
82 -393 -394 0
-82 -393 394 0
82 393 394 0
-394 0
-86 395 -396 0
86 -395 -396 0
-86 -395 396 0
86 395 396 0
-396 0
-90 397 -398 0
90 -397 -398 0
-90 -397 398 0
90 397 398 0
-398 0
-94 399 -400 0
94 -399 -400 0
-94 -399 400 0
94 399 400 0
-400 0
-98 401 -402 0
98 -401 -402 0
-98 -401 402 0
98 401 402 0
-402 0
-103 403 -404 0
103 -403 -404 0
-103 -403 404 0
103 403 404 0
-404 0
-107 405 -406 0
107 -405 -406 0
-107 -405 406 0
107 405 406 0
-406 0
-109 407 -408 0
109 -407 -408 0
-109 -407 408 0
109 407 408 0
-408 0
-114 409 -410 0
114 -409 -410 0
-114 -409 410 0
114 409 410 0
-410 0
-116 411 -412 0
116 -411 -412 0
-116 -411 412 0
116 411 412 0
-412 0
-120 413 -414 0
120 -413 -414 0
-120 -413 414 0
120 413 414 0
-414 0
-124 415 -416 0
124 -415 -416 0
-124 -415 416 0
124 415 416 0
-416 0
-129 417 -418 0
129 -417 -418 0
-129 -417 418 0
129 417 418 0
-418 0
-131 419 -420 0
131 -419 -420 0
-131 -419 420 0
131 419 420 0
-420 0
-136 421 -422 0
136 -421 -422 0
-136 -421 422 0
136 421 422 0
-422 0
-138 423 -424 0
138 -423 -424 0
-138 -423 424 0
138 423 424 0
-424 0
-143 425 -426 0
143 -425 -426 0
-143 -425 426 0
143 425 426 0
-426 0
-145 427 -428 0
145 -427 -428 0
-145 -427 428 0
145 427 428 0
-428 0
-150 429 -430 0
150 -429 -430 0
-150 -429 430 0
150 429 430 0
-430 0
-152 431 -432 0
152 -431 -432 0
-152 -431 432 0
152 431 432 0
-432 0
-156 433 -434 0
156 -433 -434 0
-156 -433 434 0
156 433 434 0
-434 0
-160 435 -436 0
160 -435 -436 0
-160 -435 436 0
160 435 436 0
-436 0
-165 437 -438 0
165 -437 -438 0
-165 -437 438 0
165 437 438 0
-438 0
-168 439 -440 0
168 -439 -440 0
-168 -439 440 0
168 439 440 0
-440 0
-170 441 -442 0
170 -441 -442 0
-170 -441 442 0
170 441 442 0
-442 0
-175 443 -444 0
175 -443 -444 0
-175 -443 444 0
175 443 444 0
-444 0
-177 445 -446 0
177 -445 -446 0
-177 -445 446 0
177 445 446 0
-446 0
-182 447 -448 0
182 -447 -448 0
-182 -447 448 0
182 447 448 0
-448 0
-185 449 -450 0
185 -449 -450 0
-185 -449 450 0
185 449 450 0
-450 0
-187 451 -452 0
187 -451 -452 0
-187 -451 452 0
187 451 452 0
-452 0
-191 453 -454 0
191 -453 -454 0
-191 -453 454 0
191 453 454 0
-454 0
-195 455 -456 0
195 -455 -456 0
-195 -455 456 0
195 455 456 0
-456 0
-199 457 -458 0
199 -457 -458 0
-199 -457 458 0
199 457 458 0
-458 0
-203 459 -460 0
203 -459 -460 0
-203 -459 460 0
203 459 460 0
-460 0
-207 461 -462 0
207 -461 -462 0
-207 -461 462 0
207 461 462 0
-462 0
-212 463 -464 0
212 -463 -464 0
-212 -463 464 0
212 463 464 0
-464 0
-214 465 -466 0
214 -465 -466 0
-214 -465 466 0
214 465 466 0
-466 0
-218 467 -468 0
218 -467 -468 0
-218 -467 468 0
218 467 468 0
-468 0
-222 469 -470 0
222 -469 -470 0
-222 -469 470 0
222 469 470 0
-470 0
-227 471 -472 0
227 -471 -472 0
-227 -471 472 0
227 471 472 0
-472 0
-229 473 -474 0
229 -473 -474 0
-229 -473 474 0
229 473 474 0
-474 0
-234 475 -476 0
234 -475 -476 0
-234 -475 476 0
234 475 476 0
-476 0
-236 477 -478 0
236 -477 -478 0
-236 -477 478 0
236 477 478 0
-478 0
-240 479 -480 0
240 -479 -480 0
-240 -479 480 0
240 479 480 0
-480 0
-245 481 -482 0
245 -481 -482 0
-245 -481 482 0
245 481 482 0
-482 0
-248 483 -484 0
248 -483 -484 0
-248 -483 484 0
248 483 484 0
-484 0
-251 485 -486 0
251 -485 -486 0
-251 -485 486 0
251 485 486 0
-486 0
-254 487 -488 0
254 -487 -488 0
-254 -487 488 0
254 487 488 0
-488 0
-257 489 -490 0
257 -489 -490 0
-257 -489 490 0
257 489 490 0
-490 0
-259 491 -492 0
259 -491 -492 0
-259 -491 492 0
259 491 492 0
-492 0
-263 493 -494 0
263 -493 -494 0
-263 -493 494 0
263 493 494 0
-494 0
-267 495 -496 0
267 -495 -496 0
-267 -495 496 0
267 495 496 0
-496 0
-272 497 -498 0
272 -497 -498 0
-272 -497 498 0
272 497 498 0
-498 0
-274 499 -500 0
274 -499 -500 0
-274 -499 500 0
274 499 500 0
-500 0
-278 501 -502 0
278 -501 -502 0
-278 -501 502 0
278 501 502 0
-502 0
-283 503 -504 0
283 -503 -504 0
-283 -503 504 0
283 503 504 0
-504 0
-286 505 -506 0
286 -505 -506 0
-286 -505 506 0
286 505 506 0
-506 0
-288 507 -508 0
288 -507 -508 0
-288 -507 508 0
288 507 508 0
-508 0
-292 509 -510 0
292 -509 -510 0
-292 -509 510 0
292 509 510 0
-510 0
-296 511 -512 0
296 -511 -512 0
-296 -511 512 0
296 511 512 0
-512 0
-301 513 -514 0
301 -513 -514 0
-301 -513 514 0
301 513 514 0
-514 0
-303 515 -516 0
303 -515 -516 0
-303 -515 516 0
303 515 516 0
-516 0
-308 517 -518 0
308 -517 -518 0
-308 -517 518 0
308 517 518 0
-518 0
-311 519 -520 0
311 -519 -520 0
-311 -519 520 0
311 519 520 0
-520 0
-313 521 -522 0
313 -521 -522 0
-313 -521 522 0
313 521 522 0
-522 0
-317 523 -524 0
317 -523 -524 0
-317 -523 524 0
317 523 524 0
-524 0
-322 525 -526 0
322 -525 -526 0
-322 -525 526 0
322 525 526 0
-526 0
-324 527 -528 0
324 -527 -528 0
-324 -527 528 0
324 527 528 0
-528 0
-328 529 -530 0
328 -529 -530 0
-328 -529 530 0
328 529 530 0
-530 0
-333 531 -532 0
333 -531 -532 0
-333 -531 532 0
333 531 532 0
-532 0
-336 533 -534 0
336 -533 -534 0
-336 -533 534 0
336 533 534 0
-534 0
-338 535 -536 0
338 -535 -536 0
-338 -535 536 0
338 535 536 0
-536 0
-343 537 -538 0
343 -537 -538 0
-343 -537 538 0
343 537 538 0
-538 0
-346 539 -540 0
346 -539 -540 0
-346 -539 540 0
346 539 540 0
-540 0
-348 541 -542 0
348 -541 -542 0
-348 -541 542 0
348 541 542 0
-542 0
-353 543 -544 0
353 -543 -544 0
-353 -543 544 0
353 543 544 0
-544 0
-356 545 -546 0
356 -545 -546 0
-356 -545 546 0
356 545 546 0
-546 0
-358 547 -548 0
358 -547 -548 0
-358 -547 548 0
358 547 548 0
-548 0
-362 549 -550 0
362 -549 -550 0
-362 -549 550 0
362 549 550 0
-550 0
-367 551 -552 0
367 -551 -552 0
-367 -551 552 0
367 551 552 0
-552 0
-553 -369 0
371 -553 0
373 -553 0
-553 -375 0
-553 -377 0
379 -553 0
-553 -381 0
-553 -383 0
385 -553 0
-553 -387 0
-553 -389 0
391 -553 0
393 -553 0
-553 -395 0
-553 -397 0
-553 -399 0
-553 -401 0
403 -553 0
-553 -405 0
-553 -407 0
409 -553 0
411 -553 0
-553 -413 0
-553 -415 0
417 -553 0
-553 -419 0
421 -553 0
423 -553 0
425 -553 0
-553 -427 0
429 -553 0
-553 -431 0
-553 -433 0
-553 -435 0
437 -553 0
439 -553 0
441 -553 0
-553 -443 0
-553 -445 0
447 -553 0
449 -553 0
-553 -451 0
-553 -453 0
-553 -455 0
457 -553 0
459 -553 0
-553 -461 0
-553 -463 0
-553 -465 0
-553 -467 0
-553 -469 0
471 -553 0
473 -553 0
-553 -475 0
477 -553 0
-553 -479 0
-553 -481 0
483 -553 0
-553 -485 0
-553 -487 0
489 -553 0
491 -553 0
493 -553 0
495 -553 0
-553 -497 0
499 -553 0
501 -553 0
503 -553 0
505 -553 0
507 -553 0
-553 -509 0
511 -553 0
-553 -513 0
515 -553 0
-553 -517 0
519 -553 0
-553 -521 0
523 -553 0
525 -553 0
527 -553 0
-553 -529 0
-553 -531 0
533 -553 0
-553 -535 0
537 -553 0
539 -553 0
541 -553 0
-553 -543 0
545 -553 0
-553 -547 0
-553 -549 0
-553 -551 0
553 0
-554 0
-555 0
-556 0
-557 0
-558 0
-559 0
-560 0
-561 0
